3625.83
0 188 193 194 196 191 197 192 198 195 199 190 183 186 179 177 189 187 0 
0 175 176 178 180 181 182 159 184 185 174 0 
0 168 50 163 71 165 170 164 167 171 172 173 156 166 0 
0 152 157 158 160 144 145 148 161 151 149 150 153 154 155 0 
0 139 140 138 141 136 143 137 142 147 146 135 132 133 134 0 
0 126 127 125 120 121 122 124 128 129 131 130 106 0 
0 112 53 115 116 49 63 107 117 118 25 109 119 108 102 58 0 
0 95 96 104 91 93 101 94 103 98 99 100 97 92 89 85 0 
0 87 81 78 83 79 88 82 86 90 75 80 77 84 0 
0 76 169 162 72 73 74 67 68 64 59 65 70 69 0 
0 61 54 111 60 55 56 57 123 114 113 62 0 
0 45 48 47 46 51 52 44 23 43 41 42 0 
0 33 105 40 32 39 38 35 34 29 37 36 0 
0 30 28 21 22 24 110 31 26 27 15 0 
0 17 12 7 19 14 11 13 20 16 18 0 
0 6 2 66 1 3 9 10 8 4 5 0 
